NAME: trans-3-Pentenoylglycine
SMILES: O=C(O)CNC(C/C=C/C)=O
M/Z: 158.08117
RT SECONDS: 289.6
MS LEVEL: 2
COLLISION ENERGY: 20 V
MZML FILEPATH: /Users/gkreder/scripts/chunky-cabinet/MSP-file-scraping/data/250407_Test_mzML_files/230912_MCFAs_Gly+Gln_Conjugations_1_30min_Method/20_5C+G_Pos_MSMS.mzML
SPECTRUM INDEX: 560
INCHI: InChI=1S/C7H11NO3/c1-2-3-4-6(9)8-5-7(10)11/h2-3H,4-5H2,1H3,(H,8,9)(H,10,11)/b3-2+
INCHIKEY: UQABBNSAHBYQRV-NSCUHMNNSA-N
RETENTIONTIME: 4.79
PRECURSORMZ: 158.000000
MSLEVEL: 2
NUM PEAKS: 3577
20.005333 18
20.298540 15
20.461562 17
21.190954 23
21.278100 17
21.466722 25
21.644369 17
21.876957 17
21.941256 22
21.968186 18
22.034509 16
22.156213 17
22.268407 19
22.408006 22
22.478321 19
22.705941 17
23.138122 25
23.204450 18
23.389199 16
23.544912 18
23.683949 17
23.799395 18
23.838930 15
23.871302 17
23.991803 15
24.115462 15
24.234274 17
24.259917 16
24.610219 16
24.881117 16
24.900507 18
25.201859 23
25.233880 17
25.458887 17
25.480558 19
25.612205 23
25.705199 19
25.880056 19
25.908934 17
26.098863 15
26.236608 17
26.286508 15
26.397049 19
26.542688 25
26.598951 16
26.634277 24
26.731944 19
26.938033 28
27.369947 16
27.567796 18
27.750122 16
27.884594 17
27.896436 15
27.923196 21
27.969372 19
27.993778 18
28.113723 15
28.486676 17
28.535807 22
28.554174 15
28.587281 16
28.805919 19
28.861412 15
28.976451 17
29.040926 63
29.073708 16
29.083197 16
29.104934 15
29.206921 15
29.237894 15
29.356735 20
29.527826 15
29.628021 16
29.735790 30
29.776309 15
29.860784 18
29.942242 16
30.033245 1233
30.077064 29
30.127500 17
30.152664 17
30.174691 31
30.194191 18
30.316484 20
30.406185 22
30.417517 15
30.674009 15
30.743860 15
30.918980 16
30.972985 26
31.049591 15
31.145748 16
31.171484 20
31.299112 23
31.375382 19
31.427458 15
31.546413 21
31.807611 18
31.981377 26
32.060392 15
32.369961 16
32.419005 18
32.460821 17
32.718816 20
32.800895 16
32.817205 16
32.836885 17
33.192442 27
33.248044 20
33.652853 31
33.679448 19
33.785908 15
33.896299 18
34.220276 15
34.243723 18
34.404845 17
34.419980 16
34.640493 15
34.751351 20
34.869210 17
35.286827 25
35.512257 15
35.629522 20
35.782439 19
35.853746 19
36.205672 20
36.246797 26
36.306987 16
36.326357 15
36.457698 29
37.100507 15
37.135413 18
37.558637 15
37.587178 16
37.625844 17
37.822902 19
37.964147 29
38.154858 22
38.431386 15
38.481128 27
38.556014 22
38.698412 19
38.883810 19
38.899129 16
38.951708 19
39.021579 53
39.058313 19
39.104157 15
39.177499 21
39.198942 15
39.652115 20
40.037668 17
40.077567 16
40.134195 16
40.351484 15
40.452415 17
40.521838 21
40.994581 16
41.183328 21
41.273854 15
41.602100 15
41.635327 24
41.657635 18
41.732466 15
41.789429 15
41.920519 17
42.146769 19
42.690853 17
42.883239 17
43.100947 22
43.402334 16
43.455251 15
43.542166 18
43.610414 16
43.667013 20
44.689794 22
45.245091 22
45.260073 19
45.275514 16
45.298634 16
45.361211 16
45.388440 17
45.433574 18
45.518575 15
45.557325 21
45.603354 16
46.291191 18
46.373377 24
46.387292 16
46.943947 19
47.131444 27
47.165626 16
47.196052 17
47.294390 21
47.322091 20
47.458914 19
47.513420 16
47.934225 17
48.046689 21
48.196229 20
48.420142 21
48.482773 17
48.895601 20
49.023393 18
49.226819 20
49.658638 20
50.202349 16
50.673461 20
50.707052 15
50.854034 18
50.878796 17
51.093028 25
51.114457 22
51.279948 18
51.416430 23
51.478052 16
51.749082 16
51.883997 17
51.905373 19
51.983833 16
52.738380 20
52.875920 24
53.200423 17
53.448088 16
53.559792 18
53.930874 17
53.956446 16
54.141459 15
54.314148 18
54.491962 20
54.521544 15
54.663930 15
54.707846 17
54.779798 32
54.820715 27
54.928433 16
54.964532 21
54.995430 18
55.015119 17
55.054491 12881
55.114099 459
55.134873 142
55.178698 90
55.210981 71
55.243850 42
55.260115 27
55.283092 42
55.322476 28
55.358486 56
55.395671 31
55.431122 25
55.473282 34
55.504188 39
55.554920 27
55.567226 26
55.610868 52
55.664907 21
55.783449 30
55.806452 16
55.833010 23
55.850927 22
55.913878 34
55.935303 21
55.978075 19
56.020838 20
56.058495 139
56.101240 23
56.162791 20
56.235753 16
56.265575 17
56.295656 29
56.321234 20
56.375031 22
56.430495 34
56.553744 16
56.741465 19
56.834293 18
56.993975 22
57.087577 26
57.187593 17
57.375637 21
57.497016 29
57.689189 17
57.703769 16
57.841152 16
57.871306 21
57.989063 26
58.054127 23
58.272938 21
58.364874 15
58.522556 28
58.640956 22
58.710830 34
59.256812 17
59.323015 15
59.390947 17
59.531445 16
59.576492 16
59.614596 16
59.663268 21
59.946839 17
59.991284 19
60.124146 25
60.246659 16
60.435797 15
60.560576 15
60.877644 18
60.893205 19
60.937519 21
60.994958 17
61.240195 31
61.375825 20
61.491537 20
62.455952 15
62.474876 17
62.619423 17
63.014944 16
63.269898 19
63.576854 16
63.784034 20
63.872897 17
63.932077 16
64.230560 34
64.261385 17
64.304015 15
64.448428 19
64.710197 16
64.861105 15
65.073610 25
65.129084 15
65.189852 18
65.369744 22
65.508495 18
65.555169 15
65.582571 28
66.117704 17
66.172201 18
66.471234 19
66.776329 15
66.968296 15
67.118417 25
67.259309 15
67.434113 17
67.682867 33
68.410480 16
68.617530 18
68.714332 17
68.799861 19
68.971571 16
69.071159 84
69.104414 19
69.147289 19
69.285439 19
69.399255 20
70.012216 24
70.041503 17
70.233077 15
70.906763 20
70.968476 19
71.166524 30
71.520877 23
71.708590 16
71.792404 16
71.986719 18
72.317657 19
72.996422 16
73.070467 16
73.226166 18
73.565434 20
73.633757 16
73.987026 23
74.021603 35
74.038741 36
74.382196 16
74.714892 19
74.807920 16
75.050938 16
75.340197 15
75.360623 16
75.454622 18
75.506889 20
75.594039 28
75.670414 19
75.718623 21
75.738311 25
75.910578 19
75.951234 21
75.978098 15
76.039630 83753
76.419385 102
76.454892 46
76.483320 68
76.563931 75
76.610231 40
76.633922 49
76.678542 68
76.715583 63
76.766822 52
76.806440 17
76.852814 57
76.873396 84
76.904951 29
76.945620 65
76.989663 91
77.044288 305
77.085149 56
77.133090 44
77.204906 57
77.273376 45
77.300046 33
77.331178 72
77.388639 42
77.408973 38
77.436081 20
77.474642 30
77.512620 19
77.577522 29
77.608062 31
77.661321 26
77.691810 19
77.741138 37
77.759793 33
77.818328 24
77.866840 37
77.902005 21
77.935468 23
77.972010 31
78.063352 16
78.096375 16
78.130609 20
78.161007 36
78.205364 31
78.243709 30
78.313030 26
78.330364 29
78.349079 20
78.379007 19
78.396327 32
78.424616 34
78.439838 57
78.459718 50
78.485514 19
78.510457 29
78.585402 84
78.617060 34
78.658188 19
78.674350 27
78.762796 23
78.802139 31
78.866969 20
78.897200 23
78.927581 22
78.995807 27
79.052162 32
79.100357 28
79.131470 35
79.218327 18
79.269140 23
79.321452 30
79.360954 19
79.380514 40
79.432463 22
79.503522 15
79.596103 20
79.682917 23
79.708449 29
79.805662 20
79.837526 20
79.892615 21
79.949353 27
79.970103 39
79.994464 23
80.056152 21
80.228185 31
80.264183 20
80.311105 24
80.456957 19
80.498135 26
80.557255 21
80.616414 22
80.651170 29
80.781111 27
80.803167 17
80.851685 19
80.940584 16
80.986975 29
81.058441 20
81.080061 24
81.095538 18
81.138096 21
81.178112 17
81.208946 15
81.276208 22
81.342553 17
81.369225 18
81.400942 22
81.436426 20
81.601962 18
81.640090 16
81.678554 26
81.713276 26
81.762486 15
81.952151 21
82.010726 20
82.073205 16
82.099528 20
82.133694 27
82.245003 31
82.360440 16
82.439028 38
82.488296 26
82.525832 19
82.541441 19
82.708074 18
82.801913 15
83.047649 1428
83.162271 24
83.216533 28
83.276176 21
83.297926 28
83.338837 16
83.355471 17
83.407224 25
83.444421 18
83.484948 22
83.516085 19
83.622463 28
83.706439 22
83.745632 20
83.884593 15
83.973832 15
84.010622 18
84.084050 25
84.143417 18
84.203527 16
84.304961 18
84.439817 28
84.473398 19
84.517138 23
84.699618 18
84.717488 16
84.756951 23
84.784361 29
84.889668 16
84.926861 23
84.948046 17
84.979669 22
85.000797 15
85.084994 22
85.402723 20
85.577545 15
85.598747 20
85.826836 20
86.205130 20
86.300007 19
86.480953 15
86.528912 30
86.769013 18
86.934435 15
87.319461 17
87.456082 16
87.512354 24
87.554299 20
87.783306 19
87.813185 16
87.839206 16
87.979258 15
88.006131 21
88.162046 17
88.296614 17
88.330480 17
88.385468 19
88.420484 20
88.522879 17
88.749419 16
88.798487 24
88.905467 16
89.046583 35
89.106589 20
89.318330 20
89.398315 17
89.744700 17
89.771467 16
89.938143 17
90.018350 22
90.295125 18
90.401216 16
90.485666 22
90.517937 21
90.544064 15
90.713371 26
90.817895 15
90.982444 16
91.324182 16
91.490044 16
92.110953 17
92.226465 17
92.402621 19
92.785789 17
92.872804 16
93.103398 21
93.192709 31
93.220738 19
93.247191 19
93.285925 15
93.323475 20
93.416758 18
93.707048 20
93.884568 15
94.045595 20
94.262409 15
94.315378 16
94.462772 18
94.512851 17
94.536584 23
94.665543 18
95.099773 18
95.263015 20
95.358641 22
96.015630 25
96.270434 16
96.298091 15
96.343076 20
96.500604 16
96.767656 20
96.922917 24
97.034827 20
97.186537 23
97.462128 20
97.516413 18
97.620400 16
97.713528 20
97.743076 16
97.766442 17
97.934695 21
98.094709 20
98.344920 19
98.497624 17
98.548874 21
98.662595 20
99.586692 18
99.632481 15
99.695356 26
99.981599 29
100.395068 18
100.490537 16
100.527574 15
100.602709 16
100.641054 20
100.743760 19
100.855103 17
101.052246 16
101.355154 17
101.521092 23
101.701883 18
101.794352 15
101.921564 17
102.014907 94
102.050564 28
102.164647 17
102.251534 29
102.354975 20
102.524013 15
102.669098 15
102.808475 15
102.971199 35
103.075059 18
103.144246 20
103.173810 16
103.238625 16
103.320375 16
103.756666 19
104.184048 20
104.224997 24
104.412757 15
104.517660 17
104.699288 21
104.728634 22
105.204830 17
105.357834 21
105.427535 17
105.471461 16
105.545217 16
105.586433 16
105.663973 15
105.810550 16
106.069745 16
106.486157 16
106.588660 18
106.989947 238
107.057573 27
107.117782 15
107.179008 15
107.211731 15
107.312514 20
107.419210 15
107.487904 21
107.604058 26
107.775975 25
107.818949 22
107.900405 20
108.049758 15
108.145068 17
108.329848 22
109.028649 15
109.090857 17
109.188330 22
109.219998 20
109.247880 20
109.351975 15
109.551616 18
109.597657 19
109.963945 20
110.049542 16
110.186362 26
110.216391 15
110.535463 35
110.609405 16
110.661997 23
110.838611 25
111.029959 17
111.743493 18
112.076091 1862
112.165130 41
112.204505 35
112.244047 35
112.264805 30
112.291349 22
112.325671 27
112.374255 30
112.398954 23
112.489678 23
112.538182 31
112.897201 19
113.073371 21
113.192983 15
113.299339 20
113.592349 18
113.702522 15
113.729695 18
113.978581 36
114.516071 15
114.671964 35
114.719637 17
114.754235 22
114.802653 19
114.976504 15
115.025657 19
115.093260 27
115.874593 17
115.940666 17
116.437129 18
116.554625 15
116.677718 16
116.734074 17
116.963231 24
117.111988 20
117.149244 23
117.329100 24
117.471789 16
117.832377 20
117.947589 17
118.162209 20
118.467657 15
118.767081 17
119.048225 15
119.075574 16
119.505754 22
119.942634 18
121.277761 25
121.593496 15
121.625075 17
121.695843 18
122.131153 20
122.162831 24
122.270251 15
122.306811 24
122.574516 16
122.677624 20
122.942921 15
123.197166 29
123.233765 17
123.287801 20
123.562528 21
124.031023 21
124.294416 30
124.497892 26
124.638611 17
124.868958 37
125.105650 16
125.222118 15
125.355869 17
125.554893 18
125.593923 26
125.753999 15
125.979050 16
126.552023 18
126.758385 17
126.855129 19
127.111613 16
127.714850 29
127.888611 16
127.918133 16
127.961747 22
127.992629 17
128.051353 18
128.110112 28
128.330744 21
128.373621 16
128.493017 18
128.731934 20
129.089984 21
129.125031 24
129.286129 18
129.482084 16
129.749570 15
129.998231 58
130.089046 127
130.169408 25
130.194990 17
130.226354 30
130.324487 20
130.454390 15
130.573155 16
130.749383 15
130.857579 24
130.996537 16
131.268056 15
131.310976 16
131.379397 17
131.645123 18
131.714731 21
131.787153 15
131.918735 16
132.233782 15
132.333640 19
132.357215 16
133.253578 21
133.297671 21
133.482494 18
133.602254 18
133.793579 18
133.959987 17
134.192184 22
134.434395 20
134.557524 16
134.703727 18
134.806810 19
135.209460 22
135.290952 16
135.598059 16
135.636944 25
135.896659 16
135.925109 17
136.900024 24
137.013903 19
137.242423 19
137.423190 31
137.497654 22
137.531248 15
137.783913 22
138.008494 18
138.946415 18
139.004612 18
139.117471 19
139.568015 20
140.070769 3198
140.161217 139
140.235132 37
140.297981 21
140.346626 39
140.503642 17
140.625873 29
140.727773 19
141.169887 26
141.283118 15
141.381096 18
141.643427 17
141.676774 18
141.749242 16
141.773732 17
142.036377 16
142.437446 25
142.527847 16
142.747681 19
142.794179 20
142.870791 20
143.336605 18
143.370901 18
143.755376 18
143.926649 26
144.045299 17
144.822751 16
145.574130 24
146.099980 20
146.606001 15
146.875598 18
147.005017 22
147.051429 20
147.085542 18
147.156087 26
147.272703 17
147.328283 20
147.349195 21
147.444022 22
147.548998 16
147.744634 16
147.825668 19
148.316666 21
148.374146 17
148.740375 20
148.806346 15
148.890227 19
148.939012 21
149.352000 20
149.513326 19
149.712819 18
149.945720 16
150.152013 16
150.446295 18
150.467387 16
151.023116 17
151.622188 18
151.799556 23
151.960823 16
152.158970 22
152.355751 20
152.533655 22
152.851826 16
153.115069 16
153.180293 17
153.671492 20
153.817127 25
153.914258 19
154.803324 16
154.970431 15
155.372120 26
155.906240 20
156.135201 18
156.285590 19
156.407546 27
156.612862 21
156.682419 19
157.067045 24
157.089902 17
157.134348 42
157.167828 27
157.275439 45
157.356150 59
157.412140 17
157.440895 45
157.514469 62
157.585014 16
157.642253 42
157.677820 20
157.746565 34
157.832078 30
157.930107 25
158.005074 965
158.081537 141595
158.704795 41
158.747845 84
158.806145 122
158.850194 80
158.959287 78
159.084055 483
159.137618 89
159.165108 52
159.214303 125
159.318369 68
159.399108 68
159.457531 65
159.517360 80
159.552933 89
159.613002 47
159.696573 101
159.784531 73
159.836676 64
159.921833 49
160.026664 40
160.096993 45
160.121194 48
160.155918 46
160.179728 34
160.255478 46
160.304621 24
160.344641 34
160.369808 51
160.420286 40
160.496157 46
160.536594 45
160.598370 42
160.627914 37
160.685171 24
160.744519 32
160.809097 51
160.845542 27
160.871877 28
160.931665 54
160.994115 45
161.073817 54
161.123489 44
161.218272 71
161.333054 46
161.443777 50
161.542677 26
161.568617 35
161.638028 35
161.696442 17
161.751356 55
161.796717 57
161.867724 60
161.897827 31
161.935097 28
161.980710 25
162.031758 30
162.068226 30
162.126889 55
162.148866 24
162.259573 31
162.304191 37
162.368032 32
162.432963 34
162.500105 66
162.550007 26
162.586500 31
162.718345 18
162.778497 52
162.850047 32
162.878867 27
162.900806 25
162.974804 24
163.010454 35
163.046419 31
163.106858 31
163.244592 16
163.295809 24
163.334805 26
163.395535 23
163.531205 18
163.576063 19
163.625606 25
163.682134 26
163.723761 45
163.751163 24
163.797168 22
163.829077 22
163.911515 34
163.985016 15
164.014226 30
164.159987 20
164.190376 17
164.214005 15
164.249262 20
164.425745 16
164.512455 19
164.593090 29
164.631348 26
164.680620 16
164.738259 41
164.863614 25
164.917995 18
164.956334 19
164.992482 28
165.057823 28
165.121777 15
165.212522 19
165.378178 17
165.425480 22
165.491036 17
165.521887 26
165.557965 29
165.625101 18
165.648930 26
165.878733 26
165.911777 18
165.962441 15
166.052963 26
166.111065 23
166.239852 19
166.298376 21
166.326266 21
166.372423 21
166.433490 18
166.527232 15
166.570558 22
166.612174 23
166.651972 19
166.710301 22
166.757343 20
166.820351 20
166.889665 16
166.966006 25
166.994526 42
167.042854 20
167.078846 31
167.228997 33
167.258046 32
167.295583 26
167.416923 26
167.454085 16
167.540359 27
167.675268 41
167.800023 17
167.822424 27
167.858974 25
167.903944 25
167.981874 16
168.005959 15
168.133523 28
168.208465 18
168.357121 21
168.445711 20
168.617015 15
168.747713 17
168.971836 16
169.019408 21
169.143779 33
169.265605 25
169.370469 21
169.461568 16
169.496464 19
169.638012 23
169.703185 20
169.956345 19
170.026689 27
170.205833 27
170.336505 19
170.482347 17
170.609713 18
170.707015 18
170.759506 16
170.790083 16
170.871743 15
170.896608 22
170.955114 15
171.089009 28
171.119364 21
171.238297 16
171.331713 15
171.432763 29
171.470948 17
171.554651 19
171.591486 26
171.636861 22
171.711590 19
171.798645 20
171.836218 20
171.929616 17
172.004463 20
172.088534 22
172.171570 21
172.300620 19
172.350050 26
172.371634 22
172.463777 18
172.598177 17
172.718841 24
172.801951 26
172.972954 18
173.005364 21
173.032155 20
173.245791 16
173.294182 16
173.389937 19
173.436202 22
173.479014 20
173.641539 29
174.137619 27
174.365203 19
174.515056 28
174.553705 19
174.636962 22
174.705131 21
174.757718 17
174.939974 27
175.045726 16
175.125501 23
175.218853 22
175.326827 19
175.455662 24
175.488124 16
175.638011 23
175.675818 21
175.728139 15
175.839161 19
176.061378 90
176.167379 18
176.230618 15
176.290028 26
176.313444 25
176.360203 21
176.696330 16
176.923442 22
176.961549 27
177.110840 22
177.297064 24
177.313533 19
177.377410 16
177.457307 21
177.617624 21
177.716905 19
177.831493 28
177.883659 20
177.926409 16
178.192864 16
178.250524 17
178.267264 21
178.345994 17
178.512040 30
178.558076 17
178.757061 27
178.835057 15
178.892750 15
179.117124 27
179.163644 15
179.339846 30
179.387904 17
179.477983 17
179.754425 25
179.862050 18
179.961880 21
180.024635 16
180.116299 22
180.153314 19
180.499404 17
181.116476 32
181.177903 17
181.340940 22
181.424827 17
181.479168 20
181.525535 19
181.577471 16
181.788040 15
182.084933 20
182.453020 26
182.545272 15
182.638829 15
182.747249 16
182.801101 16
182.896147 19
183.010685 16
183.119481 15
183.452753 19
183.545838 15
183.619647 24
183.957134 26
184.141819 16
184.299597 15
184.408507 18
184.614747 17
184.766582 19
184.852261 19
184.941853 20
185.007953 21
185.265103 25
185.335532 16
185.795356 15
185.850700 29
185.882754 20
186.262448 19
186.350921 20
186.416596 17
186.478507 16
186.778885 20
186.851829 15
186.907439 17
186.946276 20
186.977815 15
187.073388 16
187.133881 20
187.204764 22
187.300182 25
187.445413 17
187.486936 18
187.730023 23
187.847795 24
188.411702 16
188.671891 16
188.851418 20
188.893652 19
188.920812 15
188.972391 16
189.022262 21
189.089751 16
189.744376 15
189.903109 17
189.958212 20
190.215809 18
190.661658 16
190.979374 32
191.038305 21
191.163813 16
191.335120 15
191.524962 17
191.659781 16
191.804131 15
191.879123 26
192.181336 16
192.342652 20
192.589936 17
192.662914 18
192.749232 15
192.781204 22
192.955115 15
193.376872 17
193.440655 16
193.488472 17
193.568176 24
193.634292 18
193.799414 18
194.014774 15
194.118589 21
194.272756 19
194.461995 19
194.507092 21
194.772425 17
195.344883 21
195.613189 15
195.822620 25
195.949482 17
195.996953 15
196.060373 15
196.385055 16
196.610638 18
196.793955 15
197.036092 31
197.072191 18
198.170945 17
198.251428 16
198.517226 18
198.613103 16
199.140190 40
199.406715 21
199.555756 23
199.675846 19
200.167963 15
200.394209 21
200.703049 15
200.881417 17
201.223242 29
201.329394 16
201.442643 17
202.101866 18
202.403344 16
203.342164 19
203.492998 18
203.715901 22
203.979366 16
204.143281 17
204.249716 17
204.442187 20
204.626645 16
204.814904 17
205.463819 18
205.518307 24
205.617409 16
205.796663 16
206.129722 25
206.292313 15
206.468753 20
207.092638 19
207.199904 15
207.706751 25
207.851947 22
207.940907 26
208.624528 15
208.693252 22
209.051403 15
209.290005 23
209.498980 16
209.539487 20
209.746436 19
209.937644 17
210.613456 19
210.644960 16
210.706581 15
210.749838 19
210.773884 16
211.085912 18
211.119699 20
211.319056 17
211.393960 16
211.986010 16
212.052628 16
212.257087 20
212.468978 17
212.561873 15
212.628704 15
212.734481 15
213.105160 16
213.138619 15
213.230664 26
213.473163 17
213.668188 16
214.001065 22
214.076494 16
214.438134 18
214.503856 27
215.176989 16
215.282772 19
215.461933 21
216.017836 18
216.294284 16
216.529146 18
216.581907 16
217.116335 19
217.203932 17
217.273886 15
217.581196 19
217.653574 17
217.705285 23
217.738918 19
217.788892 19
217.950039 19
218.125634 15
218.151765 19
218.270676 16
218.822304 18
219.082134 20
219.372222 32
219.687612 18
220.061297 29
220.129297 18
220.333635 24
220.659966 16
220.758806 18
221.009044 16
221.269861 25
221.587599 16
221.721732 15
222.396225 16
222.843700 19
222.979091 24
223.088912 17
223.234399 16
223.722208 16
224.194212 15
224.511740 19
224.786539 18
225.108572 16
225.284797 20
225.314363 16
225.353091 15
225.431432 25
225.663586 16
226.438870 17
226.887416 16
226.947651 17
227.075733 15
227.105647 17
227.164641 20
228.015042 19
228.469028 22
228.928634 23
229.344596 16
229.745547 17
230.145529 16
230.268742 17
230.498873 21
230.593777 16
230.676585 21
230.820474 18
231.048780 19
231.118094 16
231.397297 22
231.433970 19
231.501895 16
233.250092 16
233.975518 20
234.071878 15
234.272094 22
234.405224 18
235.179575 19
236.198462 16
236.820753 21
236.991205 19
237.547206 17
237.697349 17
237.829884 23
238.111888 19
238.369159 19
238.747845 16
238.891350 16
239.455738 19
239.689029 16
239.768846 22
240.195580 18
240.399161 23
241.635544 16
241.795945 20
241.920216 23
242.535912 35
242.848311 19
243.044846 15
243.420076 16
244.117802 21
244.336456 21
244.693566 15
244.888291 18
245.040736 18
245.282953 31
245.389876 16
245.777143 15
246.820141 20
246.974413 19
247.062866 15
248.293030 24
248.414620 17
248.453246 15
248.804046 21
248.865513 21
249.596194 22
249.737304 16
250.554165 22
250.877891 23
251.285926 25
251.358919 32
251.459002 20
251.624306 16
251.823310 18
251.868038 18
252.069257 17
252.447970 19
253.489168 24
253.808573 19
254.118980 15
254.276269 19
254.731289 26
254.905269 21
255.027737 21
255.122278 24
255.555258 18
256.368481 61
256.490450 17
256.636876 15
256.792897 24
257.122479 18
257.160319 16
257.300838 18
257.669763 22
257.721086 15
257.866764 16
258.273121 24
258.512813 17
259.111841 15
259.189191 15
259.277783 18
259.572204 19
260.118090 16
260.479042 16
260.669334 16
260.700572 30
260.746827 16
261.481742 17
261.671881 23
262.351768 19
262.617027 23
262.999849 15
263.176409 18
263.250779 22
264.190264 15
264.533715 16
264.616069 22
264.861458 21
265.351218 22
266.353109 22
266.458347 18
266.807600 15
266.972267 25
267.422518 15
267.795464 19
267.938984 27
268.294587 20
268.441773 18
268.881450 20
269.007154 21
269.092878 31
269.125341 15
269.451134 16
269.525381 16
269.572418 24
269.758884 17
270.042972 18
270.495261 30
270.590904 16
270.834436 27
271.985997 22
272.618765 19
272.726308 16
273.121062 15
273.317217 17
273.356383 15
273.395658 20
274.016590 18
274.296348 18
274.459495 16
274.783364 16
274.951584 17
275.094076 19
275.312386 15
276.492804 21
276.881321 16
277.007466 19
277.541433 15
278.254562 27
278.667107 24
278.726614 18
279.003400 19
279.808484 19
280.864581 29
281.276818 17
281.362416 21
281.516702 25
281.717342 16
281.834420 20
282.286674 18
282.536551 16
282.719882 16
282.806788 15
282.893429 28
283.422803 23
283.566662 15
283.742116 17
284.040781 17
284.621044 16
284.766014 18
284.994180 23
286.625426 18
287.168884 34
287.363311 21
287.625396 43
288.015355 18
288.491139 15
288.987370 20
289.316589 17
289.572058 18
289.739899 24
291.172949 15
291.250663 22
291.376993 21
291.887352 16
292.533758 22
293.387235 15
293.750153 19
293.904613 17
294.163286 18
294.368929 17
294.595263 16
294.782137 23
296.318713 19
296.664630 18
297.111900 30
298.353399 15
299.411096 16
300.316787 16
302.127060 15
302.485029 19
302.554891 18
302.915838 19
303.023365 15
303.093184 16
303.153033 18
303.344146 20
303.911661 26
304.501255 18
305.191501 19
305.452018 17
305.581092 19
305.622048 16
305.722219 19
306.314000 19
307.737183 20
307.980901 27
308.406605 16
308.604121 24
308.663959 20
308.733816 19
309.268834 15
309.531262 19
309.767725 18
309.994656 15
310.081590 17
310.708203 19
311.567374 16
311.620918 21
312.643260 16
313.313749 15
313.546270 19
313.825986 22
313.907553 23
315.696831 21
315.761112 19
316.462307 21
316.621049 19
316.656827 15
316.983962 22
317.200163 15
317.290118 21
317.336085 18
317.483279 25
317.667840 17
317.902754 25
318.053396 16
318.488231 17
319.006988 17
319.437542 18
319.559796 21
319.621463 22
319.856951 19
320.123388 16
320.328444 15
320.482279 26
320.769818 16
320.912486 26
321.816629 22
322.539316 17
322.580847 17
322.619321 15
322.825117 16
322.886923 17
323.041412 15
323.588074 23
324.070657 17
324.123503 15
324.598169 15
324.680752 20
324.808773 18
324.897592 15
324.973649 24
325.289215 15
325.868188 17
326.265284 17
326.404614 21
326.458752 23
326.593226 17
327.291331 27
327.590001 15
327.737537 17
327.816415 20
328.366126 15
328.572661 18
328.677989 17
329.052035 16
329.589818 32
329.682523 16
329.956990 16
330.007904 16
330.372384 20
330.894881 18
331.801538 22
332.344466 26
332.639916 17
334.187098 20
334.384339 20
336.199257 15
336.262434 22
337.029034 19
337.334925 15
337.565941 22
338.092841 18
338.535565 18
339.242236 15
340.065855 15
340.240211 20
340.287770 20
341.350790 19
341.398429 15
341.865604 17
341.971202 16
342.172402 19
342.277637 16
342.578040 32
343.357686 16
343.742019 29
343.800620 20
343.887153 19
344.230821 16
344.337130 16
344.619590 18
345.096734 19
345.219845 18
345.679411 19
346.307734 15
346.477431 23
347.512685 16
348.463915 25
348.846064 17
349.724037 17
349.850335 17
350.089577 16
350.376592 20
350.564345 16
350.885244 17
350.994102 18
351.402371 16
351.507996 19
351.551400 18
351.862808 17
352.531498 25
355.674994 18
356.012594 16
357.216057 21
357.314014 18
357.741179 18
357.840269 22
358.194131 16
358.861563 26
360.579257 16
361.213693 16
361.285856 18
361.393847 18
361.459940 15
361.690204 15
361.961045 25
362.473703 17
362.637606 18
362.768336 17
362.888263 19
363.773349 15
364.035301 25
365.490451 29
365.863173 16
366.077935 17
366.981604 20
367.915383 16
369.103386 16
369.272626 16
369.545029 20
370.447366 20
370.978966 16
372.311345 17
372.848777 15
373.209739 21
373.418501 22
373.705428 25
373.773437 18
374.075135 16
374.405727 17
374.802020 17
374.971393 17
375.381948 15
375.694049 23
376.238581 17
376.903477 26
377.137759 17
377.249268 20
377.428780 18
377.563642 16
377.733418 18
378.426273 18
379.420937 17
379.746236 26
380.148080 17
380.975179 17
381.109451 15
381.228804 20
381.467394 20
381.680225 19
382.330744 16
382.532410 26
382.889899 16
382.968368 16
383.742408 18
383.802970 17
384.463987 21
384.885922 16
386.283139 27
387.044538 23
387.208321 18
387.761393 25
388.131285 15
388.972462 21
389.534120 17
390.736795 16
390.959143 24
390.982786 16
391.718532 17
392.283966 20
392.331113 15
393.137273 22
393.250883 16
393.478152 17
393.629841 17
394.194479 19
394.285203 20
394.519883 18
396.028217 16
396.123746 17
396.233300 18
396.495662 20
396.775228 20
397.248150 18
397.343822 17
397.728754 15
398.217890 17
398.265988 16
398.540437 15
398.811181 25
399.066758 25
399.158328 28
399.467063 18
400.015142 17
401.352797 15
401.429421 16
401.817188 16
401.913365 23
403.690519 19
403.853974 20
404.141716 15
404.429719 16
405.928988 19
406.182973 16
406.575683 21
406.876109 17
407.096155 20
407.477294 15
407.593512 16
408.368330 24
409.099032 16
409.558647 17
409.863272 16
409.909670 15
409.978736 23
410.432805 20
411.082105 21
411.193612 18
411.902587 19
412.651836 17
412.813919 18
413.434092 27
413.769969 15
414.598070 17
414.726127 17
414.905913 17
415.230756 18
416.201643 18
416.513241 25
416.899187 19
417.437505 19
417.741871 19
419.969845 18
420.580095 16
420.886163 17
421.485841 17
421.732848 17
421.908913 19
422.368502 17
423.747293 18
424.101112 15
424.317092 17
424.940391 15
425.825605 15
426.748051 15
426.949534 26
427.292195 16
427.993222 20
428.063346 17
428.940740 19
429.132236 19
429.390199 15
429.659740 15
429.724265 17
430.028022 18
430.396767 18
430.436698 20
430.829755 26
431.309109 20
431.816584 16
432.079135 20
432.400752 23
432.880691 16
433.422587 17
433.713161 18
434.202595 16
434.354851 21
434.715149 15
435.264829 31
435.515842 24
435.683297 25
436.046513 15
436.352897 16
436.552118 17
436.863005 22
437.047700 21
438.428148 16
438.546403 19
438.594203 15
438.671039 19
439.315898 21
439.518611 18
439.903067 16
440.011217 22
440.347803 24
440.817489 20
441.316182 29
441.583403 21
443.094263 27
443.250099 25
443.974144 15
444.226471 21
444.372526 19
445.544994 29
446.077217 15
446.343473 15
446.682467 35
447.839636 23
448.904192 19
449.127677 17
449.459757 19
449.860687 16
451.091146 23
451.880199 15
452.491702 16
452.842881 17
453.918635 17
454.012252 20
454.332690 18
454.936630 18
455.360718 16
455.701366 16
456.607128 15
456.714987 15
456.986734 18
457.423397 22
457.703881 19
458.227531 22
458.502030 17
459.558470 15
459.868435 23
461.380799 16
462.119498 16
463.089599 17
463.537216 18
463.662667 16
463.929993 15
464.265168 18
464.632196 16
464.808410 15
465.043134 18
467.145939 15
467.351288 18
467.851513 19
468.068920 20
468.868423 28
469.228659 15
469.986032 18
470.695123 16
471.234362 16
471.403087 16
472.186540 16
473.495266 17
474.143786 16
474.505653 24
474.917600 22
475.167863 17
475.829512 18
475.914211 16
476.027372 24
477.705175 16
478.959124 18
479.360455 15
479.724459 21
480.511819 23
480.767108 46
481.229825 21
481.457629 16
482.140292 17
482.224797 24
482.842337 18
484.367098 15
485.501576 19
485.918771 20
485.994051 21
486.281050 17
487.512943 24
488.244966 19
488.441167 22
489.828126 16
490.383102 17
490.412168 22
490.526364 15
491.135854 19
491.186439 22
491.529336 20
492.104629 24
492.163734 25
492.202934 18
492.596926 15
492.889512 34
493.360099 20
494.417344 20
494.965282 17
495.513248 15
496.280263 20
496.402382 20
496.725551 17
496.906685 17
497.787299 23
498.008238 17
499.372779 16
500.103585 15
500.679183 17
500.961265 15
501.012637 18
501.102584 16
502.128905 17
502.283027 19
502.873823 21
503.195106 21
503.555008 15
504.122837 15
504.468256 17
505.781707 18
506.101164 19
506.192744 16
506.541469 17
506.813042 20
506.859497 18
507.127885 19
507.200079 17
508.077835 16
508.129995 15
509.912048 17
510.010436 16
510.087640 19
510.223975 16
510.345061 25
511.441202 15
512.243302 26
512.283843 27
513.324292 34
513.555430 30
515.166669 15
515.439578 19
515.699982 15
516.910698 18
516.975285 25
517.366688 19
518.879553 16
519.054308 16
519.113946 17
519.284214 15
519.453958 17
519.715009 16
519.963330 16
520.168546 17
520.551432 26
520.849755 19
521.153952 17
521.637758 21
521.675307 15
522.181282 21
522.270502 18
522.789153 16
523.031534 20
523.208442 16
525.891923 16
526.592934 16
527.621113 15
528.305913 19
528.456098 16
529.001145 17
529.887151 21
530.256560 22
531.018259 17
532.025050 17
532.184517 21
532.514962 21
533.268851 17
533.824505 16
534.349174 16
534.446610 16
535.931502 16
536.460798 20
536.921684 16
537.750228 15
538.028460 16
538.137860 15
540.824168 18
542.059887 15
542.744111 24
542.957697 24
543.405978 26
543.571676 17
544.079777 22
544.186630 23
544.240094 25
544.367080 20
544.534264 15
544.614411 23
545.296571 18
545.714426 21
546.675457 18
546.797765 23
547.935845 21
548.163429 17
549.678845 16
549.906364 16
550.069909 21
550.881503 18
550.943234 21
552.044435 16
553.164894 16
554.365318 15
554.418809 16
554.513225 16
554.769548 17
555.525388 24
556.249373 21
556.740472 35
557.472013 26
557.904844 15
558.879640 15
559.353666 18
559.638642 22
560.725201 19
560.892846 16
560.994619 16
561.061407 18
562.637833 17
562.678605 15
563.127193 17
565.565649 19
565.781552 23
566.136410 15
566.586103 16
566.735923 19
567.691096 17
567.950236 17
568.469481 15
569.125505 23
570.224788 18
572.396791 19
573.904839 15
574.143489 21
574.482458 23
574.565863 15
574.922449 24
575.498893 16
575.926351 21
576.158826 25
576.200618 26
577.658827 18
578.217238 28
578.458633 16
578.843751 21
579.069618 16
581.519139 15
581.714296 18
582.502358 15
582.597670 22
583.315233 15
583.401528 16
583.472697 20
583.600777 19
584.322165 20
586.048142 21
586.327896 16
587.977238 19
588.463661 15
588.866728 18
590.170335 17
590.522156 19
590.594761 22
590.675543 18
592.585207 21
594.064960 17
594.133946 17
594.446139 17
594.548678 19
596.281926 21
596.688964 21
597.266289 15
597.896747 19
598.947732 15
599.268212 16
599.901726 23
599.981557 18
600.265419 19
600.799164 18
600.856321 15
601.586745 16
601.895126 20
602.604102 15
602.880710 15
603.485712 20
603.583888 20
604.795034 15
604.993289 16
605.119151 19
605.556142 19
605.943927 17
606.726925 22
607.122143 15
608.011839 18
608.154381 20
609.071885 15
609.195271 16
609.920772 20
610.182371 19
610.911456 16
611.280710 19
611.664653 16
611.972927 18
612.913756 15
613.037500 20
613.137005 24
613.236104 17
613.363804 17
613.945742 15
615.607811 17
616.484234 16
616.717123 18
617.288376 23
618.055311 19
618.605294 17
619.138314 18
619.352177 19
619.771269 16
620.372094 18
621.164362 24
621.335723 17
621.505396 18
622.751300 17
623.136543 15
624.939255 17
625.111766 23
625.246614 22
626.717070 15
627.405843 25
627.893234 17
627.936948 22
628.243332 22
629.531607 17
630.201621 18
630.279350 19
630.364362 21
630.436833 17
630.550496 20
630.898092 17
631.704165 16
632.229556 17
632.438788 21
632.770224 15
633.066255 15
633.505471 17
634.280085 18
634.950232 29
636.326683 23
636.927788 15
637.116117 17
637.666652 15
637.873370 15
638.707210 18
639.639714 25
639.953431 18
640.083784 15
641.679382 18
642.143882 18
642.477869 20
644.035999 21
644.149025 23
644.575221 18
644.832147 15
644.948100 15
645.065455 17
645.414507 19
645.732574 16
646.657234 20
647.496622 19
649.234311 18
650.054394 16
651.089111 16
651.206464 20
651.776320 16
652.288687 21
652.405715 18
652.610580 21
654.206589 23
654.379892 25
654.472623 18
655.570539 17
655.985452 17
656.597820 15
657.124578 28
658.331344 17
658.727879 15
659.595683 18
660.258745 19
660.449453 15
660.913039 33
662.129565 18
662.188577 17
662.998333 15
663.250479 21
663.649139 16
663.752239 18
664.583153 16
665.876180 20
666.944450 17
667.107418 16
667.255211 15
668.101762 17
668.736016 18
668.973097 19
669.210220 23
669.551159 26
669.892469 18
670.366871 17
671.034357 18
672.905865 18
673.574895 19
674.366027 16
675.032863 17
676.322782 16
678.971192 17
681.164906 15
681.673317 24
682.196895 15
682.271804 20
682.347529 26
683.607191 16
683.723708 16
684.593407 27
685.530672 16
687.714407 19
687.861589 15
688.391369 18
688.436914 19
688.737669 18
689.007836 19
689.624727 18
690.302991 18
690.557836 20
690.829255 15
691.009494 16
691.626180 17
691.928494 16
692.908484 23
693.471920 15
694.274042 16
694.870484 15
695.262490 16
695.565417 16
697.198289 15
698.030636 19
699.677356 16
699.802775 17
700.484987 25
701.146935 16
701.379942 18
704.140906 19
704.636699 16
704.796507 24
705.361050 15
706.016982 18
706.474835 26
707.447479 16
707.667865 15
707.996498 24
708.178924 22
708.407647 16
708.834579 15
708.994460 34
709.277129 18
709.719517 17
710.363090 18
711.338527 16
713.403200 16
713.680772 26
713.789532 23
714.263682 17
715.531059 25
716.361223 15
716.804299 24
717.098500 16
718.108750 22
718.262186 15
718.600144 15
720.707365 17
721.105613 21
723.492312 21
724.614918 18
727.193548 23
727.779586 15
728.509722 30
729.187513 22
729.793819 27
729.884802 17
730.505531 16
731.466733 20
731.574861 17
732.055812 22
732.254185 20
733.686837 23
735.562940 22
735.765108 18
736.029208 16
736.571356 17
736.666617 15
737.629388 15
739.452799 16
740.529358 18
741.478654 17
742.275459 18
744.034285 17
746.147931 18
746.276910 16
746.749413 17
747.701892 16
748.779341 16
749.316233 16
749.975157 15
750.979753 26
751.152519 20
752.739329 19
753.146629 19
753.478397 17
753.934471 15
756.183102 17
756.596907 24
756.735128 18
757.086834 21
757.156664 19
757.904227 28
758.961191 29
759.652836 18
761.724479 21
762.611813 21
762.704226 21
764.307280 22
765.731531 24
766.342413 16
766.712948 18
768.111878 16
768.462302 17
768.572465 15
768.711019 17
769.225549 16
770.430480 23
771.061965 18
771.139609 19
772.150376 16
772.525767 26
772.599489 18
773.010416 16
773.631802 24
773.870953 16
774.031599 20
774.636084 18
774.843401 15
774.939093 15
775.130561 17
775.417419 26
775.617091 17
776.199610 19
776.327312 17
777.685531 22
778.212170 21
778.278714 21
778.532864 17
778.595808 17
778.771513 15
779.107478 16
779.586794 21
779.953570 16
780.049280 17
780.313297 29
780.451168 16
780.754382 17
781.806311 16
782.148968 21
782.572257 18
782.629744 15
783.146002 18
783.959830 22
784.073002 21
784.249445 16
784.519532 15
785.791961 21
786.127826 18
787.503272 15
789.891004 18
790.517539 20
790.777594 17
791.421808 22
792.295079 19
792.582195 16
792.644818 20
793.418661 16
794.029711 15
794.551815 22
795.126883 18
796.123544 16
796.800968 17
797.184845 18
797.964308 18
798.237153 18
798.289375 19
798.528931 16
799.698464 16
801.819775 18
802.795966 17
802.895252 15
803.623268 17
803.767720 17
803.844540 16
805.214029 22
805.978335 15
807.019675 15
807.618743 18
807.769756 18
808.492119 23
808.680700 21
809.593362 25
811.299573 16
812.138490 18
813.016222 16
819.699968 18
820.290533 19
820.733166 25
821.537644 19
822.605414 19
823.275127 16
823.443444 19
823.600615 17
823.874036 15
824.476479 18
825.022780 15
825.417935 18
826.521026 17
826.737180 17
827.196502 15
827.928075 16
828.713074 15
829.026616 25
830.009868 20
830.412911 20
830.722437 15
831.981771 16
833.635560 23
835.008939 21
835.687633 17
836.350886 18
836.466710 19
837.501059 20
838.273943 17
838.405720 15
838.442904 17
838.705192 16
839.136752 23
839.399591 20
839.804321 16
840.381915 17
841.163797 24
841.295670 18
841.952218 18
842.255272 16
842.329176 18
842.841876 16
843.024854 21
843.652382 17
844.492696 18
844.733142 27
845.989885 16
846.321965 21
846.721937 16
849.536989 17
851.643238 21
851.781010 21
851.867732 21
852.282728 15
853.219664 21
854.007674 23
854.592812 22
855.184050 18
855.274734 15
855.983271 20
856.459197 16
856.670679 18
858.516306 17
859.439864 22
859.655689 20
859.708629 22
860.414337 17
860.687332 22
861.019809 17
862.533196 27
862.768786 21
862.952202 16
863.031407 19
863.206395 15
863.863016 27
864.637798 20
864.823271 15
866.087309 16
867.376140 20
868.331287 15
869.023612 27
869.209606 26
869.631648 15
870.155624 15
871.051629 16
871.268314 17
871.337753 17
872.252536 19
873.623752 22
874.250967 15
874.368780 16
874.599009 17
875.046830 16
875.453510 20
875.521447 17
875.975843 18
876.963763 19
879.407848 20
880.920909 16
881.425028 19
881.720185 15
882.604499 18
882.775001 19
882.860418 21
883.388233 15
883.541345 18
883.757347 17
886.405310 17
887.006636 16
888.061332 17
888.160974 20
888.640099 16
889.016706 25
890.048892 20
891.854755 26
892.025866 22
892.298791 39
892.505426 15
892.590650 16
893.463185 23
894.114745 19
895.691658 17
895.777854 28
896.782646 31
896.903173 15
897.418999 18
897.693901 18
897.987102 19
900.720813 22
903.028485 18
903.510488 17
904.061625 21
904.998015 16
906.475057 16
907.234129 17
907.303245 16
909.669112 18
910.896470 21
911.293251 18
911.519048 21
912.376891 23
913.284804 15
914.947252 20
915.189890 15
915.630252 18
917.721836 35
918.879376 16
919.580456 19
920.286040 16
921.715206 18
921.977249 19
924.612211 18
926.003451 16
926.740019 15
928.532356 20
928.754692 22
929.208160 18
930.069350 16
931.583320 16
934.180044 19
934.255312 18
936.277252 19
937.160951 15
937.457584 15
937.931288 15
938.052963 16
938.332360 20
939.721536 15
939.775815 16
941.757790 29
941.813084 21
942.452803 16
942.889409 18
943.502262 17
943.959476 15
944.190446 22
944.396695 15
944.891501 29
945.068791 17
947.804560 19
948.120980 18
950.994840 16
951.685443 22
951.969693 24
952.230370 17
952.362241 18
954.156617 16
954.492094 19
954.568536 20
956.206643 16
956.693919 16
956.995206 15
957.048486 15
958.147623 25
958.254035 22
959.673425 15
960.081694 16
960.134953 15
960.429965 16
961.165977 17
961.533268 23
962.189938 15
964.098001 20
964.186930 18
964.347070 15
965.231823 16
965.468304 15
966.180296 16
966.604542 18
966.679252 17
968.368127 21
968.474456 23
970.245256 18
973.299397 20
974.264860 16
974.515243 16
975.039108 17
975.176860 21
975.857130 30
976.609115 20
977.397301 22
979.206177 26
979.601393 32
981.793689 17
981.844943 20
982.272569 18
983.155199 17
983.945480 22
984.880588 24
985.904717 15
986.365943 26
986.808846 16
987.076494 17
987.975659 16
990.426370 19
990.884657 20
991.626651 16
991.779172 15
991.905230 17
993.475969 16
994.975288 15
995.481605 17
997.778620 18
998.342910 15
998.955308 18
999.539282 21
1001.263459 16
1003.197228 18
1003.373351 18
1003.741711 23
1004.449957 25
1007.467427 17
1010.338164 18
1010.414511 17
1011.061145 18
1012.655845 21
1013.054065 21
1014.242679 15
1014.906060 24
1015.989908 17
1017.200782 15
1017.586129 15
1017.822166 15
1018.785883 17
1019.687705 25
1020.346200 22
1020.783452 15
1022.561463 20
1022.801700 19
1023.090177 15
1023.844766 22
1024.559964 15
1025.168587 21
1025.515018 15
1026.127918 15
1026.281506 16
1027.929959 15
1028.025813 15
1028.196228 16
1030.252587 19
1030.492035 18
1031.797836 18
1033.694712 15
1033.731560 15
1034.726531 17
1035.261111 15
1035.611358 15
1036.902440 16
1038.341630 19
1040.078117 20
1042.005011 20
1042.777076 15
1045.024682 18
1045.590346 18
1046.759206 20
1047.278301 24
1048.505033 15
1048.576602 17
1049.771847 16
1049.912834 19
1050.525633 24
1051.621484 18
1052.978244 15
1053.108265 15
1053.243874 17
1053.332205 23
1053.523299 15
1054.635655 30
1054.894507 17
1056.767097 17
1056.904771 15
1057.024799 20
1057.228689 18
1057.538529 16
1058.314893 16
1058.939255 15
1059.756559 16
1061.230511 15
1061.491592 16
1062.464472 23
1062.726914 16
1063.381448 17
1063.751680 17
1065.752125 18
1066.325359 22
1067.155435 16
1067.379882 18
1067.638244 17
1067.719337 27
1068.933982 21
1069.608677 16
1069.900977 20
1071.164499 18
1071.427038 15
1071.952214 23
1072.552816 21
1073.472195 22
1074.263015 18
1075.932715 15
1076.047018 20
1076.105462 19
1076.394695 24
1077.434350 23
1078.058399 15
1078.185677 17
1078.621841 27
1078.734745 17
1080.447594 16
1081.062316 17
1082.331940 16
1082.558122 27
1084.821487 35
1085.633078 18
1085.978616 17
1086.048408 26
1086.157206 22
1086.577154 21
1087.635161 15
1087.862005 17
1090.376573 27
1090.838281 20
1092.316641 16
1092.496539 20
1093.003437 19
1093.141417 16
1093.235323 18
1093.708848 18
1095.587428 21
1096.219058 17
1096.495997 22
1097.027686 18
1097.221955 17
1097.368887 17
1098.185777 24
1098.925648 15
1100.404446 20
1100.598876 15
1101.435829 16
1101.972294 27
1103.409411 15
1103.850490 15
1103.993253 22
1104.185471 18
1105.690382 16
1106.330383 16
1106.614438 16
1106.896471 16
1107.927870 17
1108.575516 16
1109.072413 17
1109.510646 21
1109.816678 18
1109.900072 15
1111.187033 20
1112.452241 15
1113.388816 17
1113.560075 26
1114.880495 20
1115.341565 24
1115.511647 21
1116.205923 16
1116.733019 17
1117.349840 20
1117.576565 20
1118.542578 22
1118.863187 15
1122.430648 16
1125.317042 16
1126.138372 27
1126.527959 15
1127.367458 28
1128.181606 20
1129.791830 19
1132.202525 20
1133.012814 19
1133.417754 22
1133.712488 16
1133.952673 15
1134.056158 15
1135.269965 25
1135.535124 17
1135.888167 15
1136.384665 16
1137.568749 22
1139.523274 17
1140.122190 17
1140.680820 22
1140.979991 18
1141.746600 24
1144.923784 17
1145.701476 15
1147.232014 24
1150.177185 21
1154.092524 16
1154.364228 25
1154.540241 22
1155.220360 19
1155.689127 16
1156.156631 19
1158.183590 15
1158.476086 16
1159.803448 16
1163.819499 19
1164.001430 22
1164.509719 19
1164.979235 25
1165.790966 18
1165.873238 16
1166.152964 19
1166.665772 26
1166.778440 17
1168.619188 19
1170.050528 18
1171.382241 17
1171.519983 23
1171.762340 17
1173.870689 22
1174.050887 16
1175.501935 19
1176.132905 18
1176.505636 17
1176.604349 15
1177.724395 21
1179.417032 18
1183.493340 18
1184.498647 27
1184.725160 16
1185.110785 18
1186.490793 19
1187.065184 17
1187.479210 16
1188.191770 16
1188.682453 15
1189.257165 19
1189.690099 22
1191.756177 16
1193.675663 23
1193.859809 16
1195.338825 21
1196.030255 18
1196.433400 17
1196.973611 15
1199.135223 17
1199.472531 27
1200.595353 24
1201.338502 23
1202.319347 17
1202.808584 16
1204.737385 24
1205.816616 20
1207.384741 15
1207.462696 16
1208.468311 17
1209.792731 17
1220.152501 29
1221.058790 23
1223.382919 17
1224.224141 15
1224.968287 18
1225.287164 19
1225.635125 19
1226.409930 24
1227.413649 29
1227.651147 21
1227.754911 21
1231.741388 19
1232.155541 15
1232.264200 21
1235.012911 16
1235.346932 20
1236.384288 19
1236.583932 19
1236.643437 19
1237.893879 16
1240.112293 17
1240.798664 20
1241.229247 25
1241.464481 24
1241.563592 20
1242.090370 26
1242.473195 25
1242.573689 21
1243.120402 15
1244.580193 20
1245.551371 17
1247.287442 16
1248.496028 29
1250.384009 18
1251.234153 18
1251.602253 16
1253.707912 17
1255.375810 15
1255.795550 19
1256.123196 19
1256.803083 19
1259.335018 19
1259.496259 16
1260.065497 23
1262.039683 15
1262.814608 15
1263.606985 16
1264.133072 16
1264.258742 17
1265.053464 16
1265.119446 20
1266.133730 31
1266.908816 21
1267.859057 18
1267.949142 16
1268.478924 16
1268.785320 27
1269.852479 16
1272.404135 16
1274.117042 16
1274.833514 19
1275.078711 27
1275.506638 17
1276.920978 18
1277.371439 19
1278.190663 16
1279.953285 21
1280.421108 16
1280.772936 21
1282.246458 19
1282.804241 15
1282.967849 20
1283.603558 15
1284.487419 18
1286.171311 15
1286.335698 20
1286.444898 19
1286.787125 18
1287.897775 15
1290.140080 18
1292.610783 15
1294.789432 20
1294.961784 16
1295.647662 17
1295.867515 20
1295.948161 19
1296.288320 18
1296.383178 17
1297.786321 20
1301.648949 16
1302.496599 21
1304.234108 16
1304.917018 20
1305.393355 16
1306.614696 16
1308.293360 26
1309.111516 22
1309.855562 16
1310.079136 15
1310.250765 20
1311.050512 15
1312.153006 19
1312.565593 19
1312.752192 15
1313.000588 18
1313.748783 16
1314.849436 16
1314.978318 16
1315.312255 16
1315.452210 16
1316.387510 15
1318.844883 19
1321.732616 22
1322.171413 18
1323.110529 21
1324.469316 17
1324.576107 19
1324.949992 28
1325.902306 18
1326.155028 15
1326.906264 18
1327.763099 16
1327.950278 17
1328.686352 16
1330.056369 20
1333.589490 22
1334.176861 15
1335.166109 19
1336.899044 16
1339.709828 17
1340.821527 19
1342.208688 19
1343.093865 16
1343.381707 16
1346.090499 15
1346.765381 18
1347.032791 17
1347.291088 15
1347.911555 20
1348.385170 16
1348.805699 17
1349.121350 20
1349.676669 16
1353.007487 15
1353.305950 21
1353.664182 20
1355.340249 15
1356.186404 17
1356.286849 17
1356.438444 18
1357.425676 18
1357.658902 16
1361.207116 16
1361.382820 19
1361.609610 26
1362.847873 16
1363.448497 20
1363.833443 18
1364.133913 17
1364.224243 17
1364.295201 23
1365.501274 15
1367.280439 15
1367.383234 20
1367.534205 27
1367.886395 18
1370.566524 16
1370.884399 20
1373.898917 17
1374.856158 19
1375.449142 20
1375.810399 21
1377.930271 18
1378.532835 17
1379.336634 17
1384.835757 15
1385.241055 15
1385.369005 15
1385.795548 18
1390.258353 16
1390.426913 22
1391.431074 19
1392.408312 19
1392.629167 16
1393.250516 18
1396.394823 15
1398.364984 16
1398.723283 16
1400.398699 17
1402.760898 17
1404.006021 17
1404.821569 15
1405.615461 19
1406.004258 20
1407.915367 22
1408.061289 20
1408.302801 16
1410.262229 16
1410.776474 16
1413.683239 24
1414.027938 17
1414.351131 22
1415.042515 16
1415.148499 41
1415.234715 15
1416.137353 18
1416.378578 21
1416.605243 28
1416.851741 17
1417.088982 15
1417.434017 16
1418.294908 17
1418.361798 24
1419.528952 16
1419.656774 19
1423.523627 34
1425.296466 24
1425.620850 22
1427.785407 15
1428.911407 20
1428.986757 17
1429.149656 16
1429.517898 17
1431.701785 20
1431.901848 19
1433.680163 20
1437.174439 16
1437.652954 23
1437.740164 16
1438.348817 15
1438.434814 16
1438.587239 24
1438.848038 16
1440.177366 20
1440.282822 18
1441.348716 16
1441.516754 16
1444.809123 15
1445.506195 24
1446.181480 22
1449.712966 22
1449.931551 20
1450.289318 23
1451.289924 16
1452.070391 16
1453.787367 17
1454.625828 15
1456.812000 15
1457.205667 16
1457.534023 21
1459.131435 17
1460.337985 16
1462.560031 15
1462.960202 20
1463.095046 16
1463.516295 19
1464.103341 15
1465.397099 16
1467.218096 19
1467.525364 16
1468.248207 21
1468.601055 16
1470.160408 15
1470.270313 19
1470.390577 24
1470.862397 21
1474.027556 15
1476.053875 16
1478.145657 15
1480.971246 18
1481.077003 22
1482.793690 15
1485.423949 19
1485.575611 19
1486.435422 17
1486.544092 17
1489.047743 16
1489.688698 16
1489.799331 23
1492.100428 21
1494.048625 15
1494.779544 16
1495.200457 15
1495.931657 16
1496.821122 16
1499.621870 15
1500.733210 24
1500.810926 22
1502.205151 16
1503.366531 15
1506.334107 15
1507.721924 31
1507.917917 16
1509.509106 16
1512.141290 17
1513.600980 23
1514.139631 18
1514.581750 18
1515.829392 21
1518.375988 19
1519.336115 16
1519.582068 20
1519.735206 15
1521.368128 29
1521.515589 18
1521.630636 22
1523.493887 15
1525.550665 17
1525.885692 31
1527.116879 24
1528.079790 18
1528.216353 21
1531.464834 20
1532.091191 15
1532.608250 19
1533.280263 15
1534.123650 20
1536.733192 21
1537.433523 15
1539.750677 24
1541.569141 19
1542.177510 15
1542.807403 20
1543.304749 17
1543.800665 19
1544.744898 15
1549.475787 17
1549.566158 16
1549.904448 15
1550.240910 15
1551.374167 18
1551.709500 18
1552.270153 16
1553.425212 17
1553.615441 22
1554.125261 16
1554.216096 16
1556.859541 15
1557.108206 20
1558.304529 17
1558.691221 22
1559.188901 16
1559.329368 24
1559.751748 17
1562.018373 18
1562.421861 15
1563.214415 22
1563.558317 21
1564.736615 16
1565.174003 18
1565.525185 18
1565.687103 20
1566.200970 18
1569.438546 18
1570.196887 16
1571.793437 22
1571.999398 15
1572.753712 17
1574.065795 21
1574.469466 27
1575.748607 16
1577.144922 20
1577.681667 15
1579.912681 21
1580.723481 18
1581.141666 16
1581.566587 16
1583.011650 16
1585.154931 15
1585.951169 16
1586.361304 16
1586.547500 15
1587.114672 18
1590.899820 15
1596.695393 15
1598.593177 19
1599.037899 15
1601.434218 20
1601.737838 15
1602.842500 18
1603.223324 18
1605.385929 23
1605.592757 26
1607.594212 16
1608.553507 18
1608.849745 23
1609.495992 29
1611.352303 18
1613.170380 20
1618.450403 17
1619.164464 19
1619.441088 17
1619.602532 18
1620.709493 16
1621.152978 19
1623.363347 23
1623.729025 19
1625.420162 22
1625.649468 19
1627.982057 18
1629.185635 17
1631.421760 24
1631.684187 16
1631.777057 16
1632.563731 18
1632.697949 18
1633.838061 33
1635.736830 15
1637.701260 16
1638.891076 20
1640.072745 15
1640.258550 15
1641.939089 19
1642.486925 17
1643.717820 35
1644.623868 32
1645.135082 16
1645.646597 23
1646.362789 17
1647.618786 16
1650.205040 15
1651.765758 25
1652.346995 16
1652.975902 18
1654.418506 16
1654.513645 16
1655.562534 16
1659.293576 22
1661.792776 18
1662.505215 18
1663.397594 16
1664.177320 20
1665.952771 15
1666.560840 15
1666.794424 17
1667.192426 18
1667.711829 24
1669.883829 17
1670.000396 15
1670.633127 18
1670.972708 20
1671.570078 16
1671.933090 16
1672.041959 17
1672.249378 15
1672.389790 20
1673.866407 15
1675.929870 16
1676.938560 16
1678.440786 21
1679.169042 15
1680.647279 27
1681.355977 20
1681.671965 23
1683.937627 19
1684.102210 15
1686.406609 20
1691.423804 20
1692.860526 21
1693.401990 22
1695.076812 16
1696.752044 15
1697.060272 25
1697.760495 15