NAME: trans-2-Pentenoylglycine
SMILES: O=C(O)CNC(/C=C/CC)=O
MOLECULAR FORMULA: C7H11NO3
RAW INTENSITY CUTOFF: 100.0
FORMULA MATCHING TOLERANCE: 0.001
M/Z: 158.08117
RT SECONDS: 305.9
MS LEVEL: 2
COLLISION ENERGY: 0 V
MZML FILEPATH: /Users/gkreder/scripts/chunky-cabinet/MSP-file-scraping/data/250407_Test_mzML_files/230912_MCFAs_Gly+Gln_Conjugations_1_30min_Method/19_5B+G_Pos_MSMS.mzML
SPECTRUM INDEX: 576
INCHI: InChI=1S/C7H11NO3/c1-2-3-4-6(9)8-5-7(10)11/h3-4H,2,5H2,1H3,(H,8,9)(H,10,11)/b4-3+
INCHIKEY: RCJFORGFUZTSTJ-ONEGZZNKSA-N
RETENTIONTIME: 5.04
PRECURSORMZ: 158.000000
MSLEVEL: 2
NUM PEAKS: 21
30.032936 2461
55.014205 227
55.054610 1497
76.038421 1503
83.049210 52115
83.123906 2116
83.345792 105
84.055042 234
106.992062 245
112.076090 1086
130.086170 1668
138.074295 158
140.070490 3917
140.161990 141
158.003744 690
158.081237 99565
158.958288 121
159.081969 353
159.155607 111
232.087230 417
261.786738 111